8
Lattice="3.8588688373565674 0.0 0.0 1.4943339824676514 5.1440582275390625 0.0 -1.3163381814956665 0.1344461888074875 6.387655258178711" Properties=species:S:1:pos:R:3 pbc="T T T"
Ga       2.39309071       3.76001483       3.85024451
Ga       1.88549945       2.26614293       4.12574891
Ga       1.75269223       4.71689295       6.15554539
Ga       1.96654756       4.14378761       3.37839830
Te       3.48165245       4.77087361       0.45375383
Te      -0.72957571       0.21594717       5.31848854
Te       3.01470094       4.60696473       6.25107648
Te       2.74601202       2.47881590       4.98575146
8
Lattice="3.905794382095337 0.0 0.0 -0.8759148120880127 5.98743200302124 0.0 -0.6428152918815613 0.9833402633666992 5.314984321594238" Properties=species:S:1:pos:R:3 pbc="T T T"
Ga      -0.19071038       3.97244859       0.76192045
Ga       2.96603673       3.53228512       2.20392173
Ga       0.06191662       5.08422261       2.42443182
Ga       1.80670229       0.71984849       3.28272294
Te       1.24368269       4.62187585       5.01600613
Te       2.06722069       2.58228015       2.32281799
Te       2.24344373       1.01625446       3.54385457
Te       2.35222053       1.38642972       0.68524122
8
Lattice="5.975088119506836 0.0 0.0 -0.5426720380783081 6.3373799324035645 0.0 1.4092628955841064 -0.3090868592262268 5.4110236167907715" Properties=species:S:1:pos:R:3 pbc="T T T"
Ga       2.49089362       2.12873296       3.08534807
Ga       2.22812789       6.23215968       0.55216689
Ga       2.08092017       0.82041246       3.53398443
Ga       1.60484578       2.87963977       1.32259267
Te       1.81490066       0.49662637       3.55141482
Te       1.23860629       1.13184901       1.99518066
Te       6.03369752       0.35636993       4.53413978
Te       0.70475197       6.04334055       2.53588274
8
Lattice="4.073638439178467 0.0 0.0 -4.527549743652344 9.340527534484863 0.0 3.7255492210388184 5.784582138061523 9.110180854797363" Properties=species:S:1:pos:R:3 pbc="T T T"
Ga       3.99466628       9.92590725       6.73482504
Ga      -0.67298750       3.33685309       1.09501239
Ga       1.85348440       2.94837937       2.89688428
Ga       3.97696552       4.60483318       6.30854607
Te       3.05595176       5.50564943       4.76688461
Te       1.23719192      10.75523441       8.46605641
Te      -1.23297953       6.99636055       1.20070239
Te       2.29024593       3.76289102       1.66890641
