8
Lattice="6.6818528175354 0.0 0.0 2.330679416656494 4.5566020011901855 0.0 3.2442634105682373 -4.194464206695557 11.745525360107422" Properties=species:S:1:pos:R:3 pbc="T T T"
X        7.28949134       0.73056385       7.07977227
X        6.72368343      -0.77875344       7.58636565
X        8.12870600       0.02140568      11.31872519
X        6.12323135       1.38914517       6.21214848
X        6.18331878       3.91961737       0.83435579
X        3.33054588      -3.40026696       9.77955751
X       10.40214399      -0.14048036      11.49438634
X        8.94766275      -1.17112399       9.16772553
8
Lattice="7.163957595825195 0.0 0.0 -1.9255764484405518 4.550234317779541 0.0 1.0894176959991455 -2.272707223892212 5.337910175323486" Properties=species:S:1:pos:R:3 pbc="T T T"
X       -0.22873223       2.58599050       0.76520695
X        6.21444909       1.43212694       2.21342821
X        0.90135718       2.48624861       2.43488945
X        4.70891848      -1.31820664       3.29688276
X        4.22520999       0.66233124       5.03764236
X        4.66838195       0.64259945       2.33283732
X        5.60821889      -1.24132549       3.55914077
X        4.53976796       0.66427826       0.68819697
8
Lattice="3.1530466079711914 0.0 0.0 -0.7392823696136475 4.812171459197998 0.0 -3.5346226692199707 3.2747180461883545 6.757640361785889" Properties=species:S:1:pos:R:3 pbc="T T T"
X       -1.28975503       3.61747212       3.85318456
X        0.29155380       5.09039226       0.68958215
X       -1.76914652       2.91499455       4.41347100
X       -0.41004734       3.04439228       1.65174026
X       -1.90023728       2.68043841       4.43523921
X       -1.01293697       2.15345904       2.49171216
X       -0.44497443       3.21130137       5.66253044
X       -2.07538167       6.23359082       3.16697630
8
Lattice="7.0511884689331055 0.0 0.0 2.8217287063598633 5.558592796325684 0.0 -7.3661675453186035 -0.29704907536506653 14.11577320098877" Properties=species:S:1:pos:R:3 pbc="T T T"
X        3.14849711       3.14249240      10.43527723
X        0.18893705       1.53630447       1.69666736
X        0.08084036       0.56550245       4.48857845
X       -1.99881233       0.15087161       9.77477912
X        0.88973782       1.31976182       7.38605117
X       -4.55779442       2.92540555      13.11773433
X        3.15869553       3.67071206       1.86042877
X        4.51816526       1.55427379       2.58588768
