8
Lattice="5.079830646514893 0.22354355454444885 3.2629237174987793 1.586761474609375 5.073498249053955 2.897914409637451 -0.314531534910202 0.21726638078689575 6.10645055770874" Properties=species:S:1:pos:R:3 pbc="T T T"
F        2.96439080       0.26278814       5.26365890
F        1.16473040       3.44179244       8.19891522
F        1.20405895       3.17111892       5.22553690
F       -0.01196769       0.54073655       3.38731662
F        3.94038645       3.09312815       9.77302085
Hg       2.25020645       1.67415085       3.60162920
F        3.02041311       0.18117977       1.97034466
Sn       5.42261042       4.49196631       9.70855748
8
Lattice="4.949880599975586 0.1341128647327423 -0.22358641028404236 -0.3273773789405823 5.581261157989502 -4.215087890625 0.29192590713500977 0.7755061388015747 6.820649147033691" Properties=species:S:1:pos:R:3 pbc="T T T"
Cd       2.90462982       3.21282172       0.49675178
Cd       2.73703320       5.85623956      -1.51209538
Cd       0.18546537       4.78362719      -3.16466826
Cd       3.02538104       3.78292967       4.16110521
Cd       0.34284006       2.02446915      -0.95152772
Cd       3.21350508       0.99429491       6.04294778
Tb       0.57972358       2.38701030       2.62220269
Tb       0.34281960       5.18762030       0.49070154
8
Lattice="4.157800674438477 -0.21363484859466553 -0.38151511549949646 -1.9230085611343384 3.7118585109710693 0.24704177677631378 1.0945039987564087 -0.29102981090545654 12.317915916442871" Properties=species:S:1:pos:R:3 pbc="T T T"
Pd       2.88924912       1.18336435       0.35733987
Pd       1.83337141       2.28143522      11.42516755
Sb       1.79467770      -0.20757341      11.61665839
Pd       0.88232286       0.04794540       1.90245289
I        1.14873677       2.46826652       3.87963267
Pd       3.42487464       1.06158934       5.83558054
Pd       1.27752029       0.01440488       6.08689903
I        1.46028226       2.35481570       7.74190944
8
Lattice="9.86648178100586 -0.10572866350412369 -2.541428565979004 -1.1835447549819946 8.677762985229492 -4.932137966156006 -1.9532560110092163 0.37824568152427673 11.56279468536377" Properties=species:S:1:pos:R:3 pbc="T T T"
Rb       0.07391810       2.76022234       6.16567672
Rb       3.34188954       5.19079167      -1.61223504
Rb       3.81973520       1.04394234       0.93497659
Rb      -0.52906769       7.19591368       3.76663541
Rb       7.89039813       7.36306404      -4.10922800
Rb       4.64229394       4.60362168       4.03610492
Rb       5.31881520       0.29859337       6.52141438
Rb       8.41109786       3.14827576      -1.76756600
