8
Lattice="4.120053291320801 0.2532115876674652 -0.11556751281023026 -2.543560743331909 7.777390003204346 -2.7967875003814697 0.011918027885258198 0.5940765738487244 8.800324440002441" Properties=species:S:1:pos:R:3 pbc="T T T"
Ga      -0.08480591       7.40376849       6.13847342
Ga       2.16900123       3.36138843       5.41522761
Ga       0.22087448       2.87866399       0.92742108
Ga      -2.12577826       6.99810623       1.67473969
Te      -0.15700454       7.72351499      -0.10801411
Te      -2.10743186       7.75979602       4.47929391
Te       2.26019666       3.59635608      -0.89912868
Te       0.07442973       3.88486527       3.65563987
8
Lattice="4.137372016906738 -0.09235270321369171 -0.31121334433555603 -2.2937138080596924 7.547028541564941 -2.7656354904174805 0.5445276498794556 1.1320383548736572 8.818554878234863" Properties=species:S:1:pos:R:3 pbc="T T T"
Ga      -0.67310125       6.15233805      -1.74227892
Ga       3.71956613       0.64042869       3.18834464
Ga      -0.39569611       5.28792769       2.22919783
Ga       1.74972836       3.86668773       4.81651654
Te      -0.22101958       5.97828477       4.87259438
Te       1.60241815       3.44628455       1.93080262
Te       3.94228758       1.90271499       5.70131612
Te       3.70065398       0.25343112       0.59046584
8
Lattice="4.071803092956543 0.02768346108496189 -0.22580617666244507 -2.392592191696167 7.382028102874756 -2.3799612522125244 0.23272621631622314 2.009305477142334 8.3758544921875" Properties=species:S:1:pos:R:3 pbc="T T T"
Ga      -1.17710897       6.54704255       5.08415059
Ga       0.80019166       6.99479749       0.25122953
Ga       0.92992921       4.18389226       3.21334442
Ga       2.96824463       1.62955864      -0.60993853
Te       1.09829706       3.81765113       5.85942731
Te       0.90330108       2.04611550       1.53966814
Te       0.90510692       8.26689266       5.90989573
Te      -1.24650913       6.11864179       2.14248347
8
Lattice="4.295192241668701 0.09605491906404495 -0.06186365336179733 -2.3097140789031982 7.741729259490967 -1.8185336589813232 0.019584210589528084 0.21332405507564545 8.325736999511719" Properties=species:S:1:pos:R:3 pbc="T T T"
Ga      -1.75774843       5.96246817      -1.34229306
Ga       2.76839091       2.04672657       1.72514207
Ga       0.50718323       6.00715859       2.88250299
Ga       0.52159693       2.19875719       5.88609021
Te       0.52187557       3.15558380       3.25465036
Te      -1.59971504       6.96336427       4.48248402
Te       0.42064009       7.02474539       0.27679350
Te       2.74502148       3.30399428       7.38433956
